% -*- SMT2 -*-
%
% Author: Patrick Trentin <patrick.trentin@unitn.it>
%
% This file is part of OptiMathSAT.
%
% ALL-SOLUTIONS:
%     The option
%
%         -opt.fzn.all_solutions=[True|False]
%
%     can be used to make OptiMathSAT print all solutions
%     when dealing with a formula for which one wants to
%
%         a) check its satisfiability
%         b) optimize a single objective
%         c) optimize multiple objectives in lexicographic
%            fashion
%
%     When dealing with optimization problems, OptiMathSAT
%     prints all same-cost optimal solutions for the given
%     formula.
%
%     If one needs only the first N solutions, then the
%     following option can be used to stop the search
%     early on:
%
%         -opt.fzn.max_solutions=N
%
% PARTIAL SOLUTIONS:
%     The option
%
%         -opt.fzn.partial_solutions=[True|False]
%
%     can be used to make OptiMathSAT print any sub-optimal
%     solutions of an input formula that are encountered
%     along the optimization search of one or more objectives.
%

% % % % % % % % % % % % % % % % % % % % % % %
% % % % % % % % % % % % % % % % % % % % % % %
% % % % % % % % % % % % % % % % % % % % % % %

var 0..3: x ::output_var;
var 0..3: y ::output_var;
var bool: r1 ::output_var;
var bool: r2 ::output_var;

constraint int_lin_le_reif([1, 1, -1], [x, y, 4], 0, r1);
constraint int_lin_le_reif([1, 1, -1], [x, y, 2], 0, r2);
constraint bool_or(r1, r2, true);

solve maximize x;

%
% ALL SOLUTIONS:
%
% ~$ ../bin/optimathsat -input=fzn -opt.fzn.all_solutions=True < flatzinc_allsolutions.fzn
% % allsat model
% x = 3;
% y = 0;
% r1 = true;
% r2 = false;
% ----------
% % allsat model
% x = 3;
% y = 1;
% r1 = true;
% r2 = false;
% ----------
% =========
%

%
% PARTIAL SOLUTIONS:
%
% ~$ ../bin/optimathsat -input=fzn -opt.fzn.partial_solutions=True < flatzinc_allsolutions.fzn
% % objective: x (model)
% x = 2;
% y = 0;
% r1 = true;
% r2 = true;
% ----------
% % objective: x (model)
% x = 3;
% y = 0;
% r1 = true;
% r2 = false;
% ----------
% % objective: x (optimal model)
% x = 3;
% y = 0;
% r1 = true;
% r2 = false;
% ----------
% =========
%
